n_users = 8;
size = 5;
weight = [5,3,1,1,1,2,2,1];
tolerance = 1;
use_balance = 2;

preferred = [|2,2,
             |1,1,
             |-2,-2,
             |-2,-1,
             |5,3
             |4,1
             |4,2
             |1,5
             |];